c *********************************
c * Circuit generated by BenCGen
c *
c * CarryLookaheadBlock_101_101_101_InOutT
c *
c * Ports with 1 gate(s): 2
c * Ports with 2 gate(s): 431
c * Ports with 3 gate(s): 100
c * Ports with 4 gate(s): 75
c * Ports with 5 gate(s): 50
c * Total gates: 658
c *********************************
p cnf 860 2574
1 306 0
-1 -306 0
1 -305 0
306 -305 0
-1 -306 305 0
1 102 -307 0
-1 102 307 0
1 -102 307 0
-1 -102 -307 0
1 -408 0
102 -408 0
-1 -102 408 0
2 103 -308 0
-2 103 308 0
2 -103 308 0
-2 -103 -308 0
2 -409 0
103 -409 0
-2 -103 409 0
3 104 -309 0
-3 104 309 0
3 -104 309 0
-3 -104 -309 0
3 -410 0
104 -410 0
-3 -104 410 0
4 105 -310 0
-4 105 310 0
4 -105 310 0
-4 -105 -310 0
4 -411 0
105 -411 0
-4 -105 411 0
5 106 -311 0
-5 106 311 0
5 -106 311 0
-5 -106 -311 0
5 -412 0
106 -412 0
-5 -106 412 0
6 107 -312 0
-6 107 312 0
6 -107 312 0
-6 -107 -312 0
6 -413 0
107 -413 0
-6 -107 413 0
7 108 -313 0
-7 108 313 0
7 -108 313 0
-7 -108 -313 0
7 -414 0
108 -414 0
-7 -108 414 0
8 109 -314 0
-8 109 314 0
8 -109 314 0
-8 -109 -314 0
8 -415 0
109 -415 0
-8 -109 415 0
9 110 -315 0
-9 110 315 0
9 -110 315 0
-9 -110 -315 0
9 -416 0
110 -416 0
-9 -110 416 0
10 111 -316 0
-10 111 316 0
10 -111 316 0
-10 -111 -316 0
10 -417 0
111 -417 0
-10 -111 417 0
11 112 -317 0
-11 112 317 0
11 -112 317 0
-11 -112 -317 0
11 -418 0
112 -418 0
-11 -112 418 0
12 113 -318 0
-12 113 318 0
12 -113 318 0
-12 -113 -318 0
12 -419 0
113 -419 0
-12 -113 419 0
13 114 -319 0
-13 114 319 0
13 -114 319 0
-13 -114 -319 0
13 -420 0
114 -420 0
-13 -114 420 0
14 115 -320 0
-14 115 320 0
14 -115 320 0
-14 -115 -320 0
14 -421 0
115 -421 0
-14 -115 421 0
15 116 -321 0
-15 116 321 0
15 -116 321 0
-15 -116 -321 0
15 -422 0
116 -422 0
-15 -116 422 0
16 117 -322 0
-16 117 322 0
16 -117 322 0
-16 -117 -322 0
16 -423 0
117 -423 0
-16 -117 423 0
17 118 -323 0
-17 118 323 0
17 -118 323 0
-17 -118 -323 0
17 -424 0
118 -424 0
-17 -118 424 0
18 119 -324 0
-18 119 324 0
18 -119 324 0
-18 -119 -324 0
18 -425 0
119 -425 0
-18 -119 425 0
19 120 -325 0
-19 120 325 0
19 -120 325 0
-19 -120 -325 0
19 -426 0
120 -426 0
-19 -120 426 0
20 121 -326 0
-20 121 326 0
20 -121 326 0
-20 -121 -326 0
20 -427 0
121 -427 0
-20 -121 427 0
21 122 -327 0
-21 122 327 0
21 -122 327 0
-21 -122 -327 0
21 -428 0
122 -428 0
-21 -122 428 0
22 123 -328 0
-22 123 328 0
22 -123 328 0
-22 -123 -328 0
22 -429 0
123 -429 0
-22 -123 429 0
23 124 -329 0
-23 124 329 0
23 -124 329 0
-23 -124 -329 0
23 -430 0
124 -430 0
-23 -124 430 0
24 125 -330 0
-24 125 330 0
24 -125 330 0
-24 -125 -330 0
24 -431 0
125 -431 0
-24 -125 431 0
25 126 -331 0
-25 126 331 0
25 -126 331 0
-25 -126 -331 0
25 -432 0
126 -432 0
-25 -126 432 0
26 127 -332 0
-26 127 332 0
26 -127 332 0
-26 -127 -332 0
26 -433 0
127 -433 0
-26 -127 433 0
27 128 -333 0
-27 128 333 0
27 -128 333 0
-27 -128 -333 0
27 -434 0
128 -434 0
-27 -128 434 0
28 129 -334 0
-28 129 334 0
28 -129 334 0
-28 -129 -334 0
28 -435 0
129 -435 0
-28 -129 435 0
29 130 -335 0
-29 130 335 0
29 -130 335 0
-29 -130 -335 0
29 -436 0
130 -436 0
-29 -130 436 0
30 131 -336 0
-30 131 336 0
30 -131 336 0
-30 -131 -336 0
30 -437 0
131 -437 0
-30 -131 437 0
31 132 -337 0
-31 132 337 0
31 -132 337 0
-31 -132 -337 0
31 -438 0
132 -438 0
-31 -132 438 0
32 133 -338 0
-32 133 338 0
32 -133 338 0
-32 -133 -338 0
32 -439 0
133 -439 0
-32 -133 439 0
33 134 -339 0
-33 134 339 0
33 -134 339 0
-33 -134 -339 0
33 -440 0
134 -440 0
-33 -134 440 0
34 135 -340 0
-34 135 340 0
34 -135 340 0
-34 -135 -340 0
34 -441 0
135 -441 0
-34 -135 441 0
35 136 -341 0
-35 136 341 0
35 -136 341 0
-35 -136 -341 0
35 -442 0
136 -442 0
-35 -136 442 0
36 137 -342 0
-36 137 342 0
36 -137 342 0
-36 -137 -342 0
36 -443 0
137 -443 0
-36 -137 443 0
37 138 -343 0
-37 138 343 0
37 -138 343 0
-37 -138 -343 0
37 -444 0
138 -444 0
-37 -138 444 0
38 139 -344 0
-38 139 344 0
38 -139 344 0
-38 -139 -344 0
38 -445 0
139 -445 0
-38 -139 445 0
39 140 -345 0
-39 140 345 0
39 -140 345 0
-39 -140 -345 0
39 -446 0
140 -446 0
-39 -140 446 0
40 141 -346 0
-40 141 346 0
40 -141 346 0
-40 -141 -346 0
40 -447 0
141 -447 0
-40 -141 447 0
41 142 -347 0
-41 142 347 0
41 -142 347 0
-41 -142 -347 0
41 -448 0
142 -448 0
-41 -142 448 0
42 143 -348 0
-42 143 348 0
42 -143 348 0
-42 -143 -348 0
42 -449 0
143 -449 0
-42 -143 449 0
43 144 -349 0
-43 144 349 0
43 -144 349 0
-43 -144 -349 0
43 -450 0
144 -450 0
-43 -144 450 0
44 145 -350 0
-44 145 350 0
44 -145 350 0
-44 -145 -350 0
44 -451 0
145 -451 0
-44 -145 451 0
45 146 -351 0
-45 146 351 0
45 -146 351 0
-45 -146 -351 0
45 -452 0
146 -452 0
-45 -146 452 0
46 147 -352 0
-46 147 352 0
46 -147 352 0
-46 -147 -352 0
46 -453 0
147 -453 0
-46 -147 453 0
47 148 -353 0
-47 148 353 0
47 -148 353 0
-47 -148 -353 0
47 -454 0
148 -454 0
-47 -148 454 0
48 149 -354 0
-48 149 354 0
48 -149 354 0
-48 -149 -354 0
48 -455 0
149 -455 0
-48 -149 455 0
49 150 -355 0
-49 150 355 0
49 -150 355 0
-49 -150 -355 0
49 -456 0
150 -456 0
-49 -150 456 0
50 151 -356 0
-50 151 356 0
50 -151 356 0
-50 -151 -356 0
50 -457 0
151 -457 0
-50 -151 457 0
51 152 -357 0
-51 152 357 0
51 -152 357 0
-51 -152 -357 0
51 -458 0
152 -458 0
-51 -152 458 0
52 153 -358 0
-52 153 358 0
52 -153 358 0
-52 -153 -358 0
52 -459 0
153 -459 0
-52 -153 459 0
53 154 -359 0
-53 154 359 0
53 -154 359 0
-53 -154 -359 0
53 -460 0
154 -460 0
-53 -154 460 0
54 155 -360 0
-54 155 360 0
54 -155 360 0
-54 -155 -360 0
54 -461 0
155 -461 0
-54 -155 461 0
55 156 -361 0
-55 156 361 0
55 -156 361 0
-55 -156 -361 0
55 -462 0
156 -462 0
-55 -156 462 0
56 157 -362 0
-56 157 362 0
56 -157 362 0
-56 -157 -362 0
56 -463 0
157 -463 0
-56 -157 463 0
57 158 -363 0
-57 158 363 0
57 -158 363 0
-57 -158 -363 0
57 -464 0
158 -464 0
-57 -158 464 0
58 159 -364 0
-58 159 364 0
58 -159 364 0
-58 -159 -364 0
58 -465 0
159 -465 0
-58 -159 465 0
59 160 -365 0
-59 160 365 0
59 -160 365 0
-59 -160 -365 0
59 -466 0
160 -466 0
-59 -160 466 0
60 161 -366 0
-60 161 366 0
60 -161 366 0
-60 -161 -366 0
60 -467 0
161 -467 0
-60 -161 467 0
61 162 -367 0
-61 162 367 0
61 -162 367 0
-61 -162 -367 0
61 -468 0
162 -468 0
-61 -162 468 0
62 163 -368 0
-62 163 368 0
62 -163 368 0
-62 -163 -368 0
62 -469 0
163 -469 0
-62 -163 469 0
63 164 -369 0
-63 164 369 0
63 -164 369 0
-63 -164 -369 0
63 -470 0
164 -470 0
-63 -164 470 0
64 165 -370 0
-64 165 370 0
64 -165 370 0
-64 -165 -370 0
64 -471 0
165 -471 0
-64 -165 471 0
65 166 -371 0
-65 166 371 0
65 -166 371 0
-65 -166 -371 0
65 -472 0
166 -472 0
-65 -166 472 0
66 167 -372 0
-66 167 372 0
66 -167 372 0
-66 -167 -372 0
66 -473 0
167 -473 0
-66 -167 473 0
67 168 -373 0
-67 168 373 0
67 -168 373 0
-67 -168 -373 0
67 -474 0
168 -474 0
-67 -168 474 0
68 169 -374 0
-68 169 374 0
68 -169 374 0
-68 -169 -374 0
68 -475 0
169 -475 0
-68 -169 475 0
69 170 -375 0
-69 170 375 0
69 -170 375 0
-69 -170 -375 0
69 -476 0
170 -476 0
-69 -170 476 0
70 171 -376 0
-70 171 376 0
70 -171 376 0
-70 -171 -376 0
70 -477 0
171 -477 0
-70 -171 477 0
71 172 -377 0
-71 172 377 0
71 -172 377 0
-71 -172 -377 0
71 -478 0
172 -478 0
-71 -172 478 0
72 173 -378 0
-72 173 378 0
72 -173 378 0
-72 -173 -378 0
72 -479 0
173 -479 0
-72 -173 479 0
73 174 -379 0
-73 174 379 0
73 -174 379 0
-73 -174 -379 0
73 -480 0
174 -480 0
-73 -174 480 0
74 175 -380 0
-74 175 380 0
74 -175 380 0
-74 -175 -380 0
74 -481 0
175 -481 0
-74 -175 481 0
75 176 -381 0
-75 176 381 0
75 -176 381 0
-75 -176 -381 0
75 -482 0
176 -482 0
-75 -176 482 0
76 177 -382 0
-76 177 382 0
76 -177 382 0
-76 -177 -382 0
76 -483 0
177 -483 0
-76 -177 483 0
77 178 -383 0
-77 178 383 0
77 -178 383 0
-77 -178 -383 0
77 -484 0
178 -484 0
-77 -178 484 0
78 179 -384 0
-78 179 384 0
78 -179 384 0
-78 -179 -384 0
78 -485 0
179 -485 0
-78 -179 485 0
79 180 -385 0
-79 180 385 0
79 -180 385 0
-79 -180 -385 0
79 -486 0
180 -486 0
-79 -180 486 0
80 181 -386 0
-80 181 386 0
80 -181 386 0
-80 -181 -386 0
80 -487 0
181 -487 0
-80 -181 487 0
81 182 -387 0
-81 182 387 0
81 -182 387 0
-81 -182 -387 0
81 -488 0
182 -488 0
-81 -182 488 0
82 183 -388 0
-82 183 388 0
82 -183 388 0
-82 -183 -388 0
82 -489 0
183 -489 0
-82 -183 489 0
83 184 -389 0
-83 184 389 0
83 -184 389 0
-83 -184 -389 0
83 -490 0
184 -490 0
-83 -184 490 0
84 185 -390 0
-84 185 390 0
84 -185 390 0
-84 -185 -390 0
84 -491 0
185 -491 0
-84 -185 491 0
85 186 -391 0
-85 186 391 0
85 -186 391 0
-85 -186 -391 0
85 -492 0
186 -492 0
-85 -186 492 0
86 187 -392 0
-86 187 392 0
86 -187 392 0
-86 -187 -392 0
86 -493 0
187 -493 0
-86 -187 493 0
87 188 -393 0
-87 188 393 0
87 -188 393 0
-87 -188 -393 0
87 -494 0
188 -494 0
-87 -188 494 0
88 189 -394 0
-88 189 394 0
88 -189 394 0
-88 -189 -394 0
88 -495 0
189 -495 0
-88 -189 495 0
89 190 -395 0
-89 190 395 0
89 -190 395 0
-89 -190 -395 0
89 -496 0
190 -496 0
-89 -190 496 0
90 191 -396 0
-90 191 396 0
90 -191 396 0
-90 -191 -396 0
90 -497 0
191 -497 0
-90 -191 497 0
91 192 -397 0
-91 192 397 0
91 -192 397 0
-91 -192 -397 0
91 -498 0
192 -498 0
-91 -192 498 0
92 193 -398 0
-92 193 398 0
92 -193 398 0
-92 -193 -398 0
92 -499 0
193 -499 0
-92 -193 499 0
93 194 -399 0
-93 194 399 0
93 -194 399 0
-93 -194 -399 0
93 -500 0
194 -500 0
-93 -194 500 0
94 195 -400 0
-94 195 400 0
94 -195 400 0
-94 -195 -400 0
94 -501 0
195 -501 0
-94 -195 501 0
95 196 -401 0
-95 196 401 0
95 -196 401 0
-95 -196 -401 0
95 -502 0
196 -502 0
-95 -196 502 0
96 197 -402 0
-96 197 402 0
96 -197 402 0
-96 -197 -402 0
96 -503 0
197 -503 0
-96 -197 503 0
97 198 -403 0
-97 198 403 0
97 -198 403 0
-97 -198 -403 0
97 -504 0
198 -504 0
-97 -198 504 0
98 199 -404 0
-98 199 404 0
98 -199 404 0
-98 -199 -404 0
98 -505 0
199 -505 0
-98 -199 505 0
99 200 -405 0
-99 200 405 0
99 -200 405 0
-99 -200 -405 0
99 -506 0
200 -506 0
-99 -200 506 0
100 201 -406 0
-100 201 406 0
100 -201 406 0
-100 -201 -406 0
100 -507 0
201 -507 0
-100 -201 507 0
101 202 -407 0
-101 202 407 0
101 -202 407 0
-101 -202 -407 0
101 -508 0
202 -508 0
-101 -202 508 0
305 -610 0
307 -610 0
-305 -307 610 0
305 -611 0
307 -611 0
308 -611 0
-305 -307 -308 611 0
408 -612 0
308 -612 0
-408 -308 612 0
305 -613 0
307 -613 0
308 -613 0
309 -613 0
-305 -307 -308 -309 613 0
408 -614 0
308 -614 0
309 -614 0
-408 -308 -309 614 0
409 -615 0
309 -615 0
-409 -309 615 0
305 -616 0
307 -616 0
308 -616 0
309 -616 0
310 -616 0
-305 -307 -308 -309 -310 616 0
408 -617 0
308 -617 0
309 -617 0
310 -617 0
-408 -308 -309 -310 617 0
409 -618 0
309 -618 0
310 -618 0
-409 -309 -310 618 0
410 -619 0
310 -619 0
-410 -310 619 0
-408 509 0
-610 509 0
408 610 -509 0
-409 510 0
-611 510 0
-612 510 0
409 611 612 -510 0
-410 511 0
-613 511 0
-614 511 0
-615 511 0
410 613 614 615 -511 0
-411 512 0
-616 512 0
-617 512 0
-618 512 0
-619 512 0
411 616 617 618 619 -512 0
512 -620 0
311 -620 0
-512 -311 620 0
512 -621 0
311 -621 0
312 -621 0
-512 -311 -312 621 0
412 -622 0
312 -622 0
-412 -312 622 0
512 -623 0
311 -623 0
312 -623 0
313 -623 0
-512 -311 -312 -313 623 0
412 -624 0
312 -624 0
313 -624 0
-412 -312 -313 624 0
413 -625 0
313 -625 0
-413 -313 625 0
512 -626 0
311 -626 0
312 -626 0
313 -626 0
314 -626 0
-512 -311 -312 -313 -314 626 0
412 -627 0
312 -627 0
313 -627 0
314 -627 0
-412 -312 -313 -314 627 0
413 -628 0
313 -628 0
314 -628 0
-413 -313 -314 628 0
414 -629 0
314 -629 0
-414 -314 629 0
-412 513 0
-620 513 0
412 620 -513 0
-413 514 0
-621 514 0
-622 514 0
413 621 622 -514 0
-414 515 0
-623 515 0
-624 515 0
-625 515 0
414 623 624 625 -515 0
-415 516 0
-626 516 0
-627 516 0
-628 516 0
-629 516 0
415 626 627 628 629 -516 0
516 -630 0
315 -630 0
-516 -315 630 0
516 -631 0
315 -631 0
316 -631 0
-516 -315 -316 631 0
416 -632 0
316 -632 0
-416 -316 632 0
516 -633 0
315 -633 0
316 -633 0
317 -633 0
-516 -315 -316 -317 633 0
416 -634 0
316 -634 0
317 -634 0
-416 -316 -317 634 0
417 -635 0
317 -635 0
-417 -317 635 0
516 -636 0
315 -636 0
316 -636 0
317 -636 0
318 -636 0
-516 -315 -316 -317 -318 636 0
416 -637 0
316 -637 0
317 -637 0
318 -637 0
-416 -316 -317 -318 637 0
417 -638 0
317 -638 0
318 -638 0
-417 -317 -318 638 0
418 -639 0
318 -639 0
-418 -318 639 0
-416 517 0
-630 517 0
416 630 -517 0
-417 518 0
-631 518 0
-632 518 0
417 631 632 -518 0
-418 519 0
-633 519 0
-634 519 0
-635 519 0
418 633 634 635 -519 0
-419 520 0
-636 520 0
-637 520 0
-638 520 0
-639 520 0
419 636 637 638 639 -520 0
520 -640 0
319 -640 0
-520 -319 640 0
520 -641 0
319 -641 0
320 -641 0
-520 -319 -320 641 0
420 -642 0
320 -642 0
-420 -320 642 0
520 -643 0
319 -643 0
320 -643 0
321 -643 0
-520 -319 -320 -321 643 0
420 -644 0
320 -644 0
321 -644 0
-420 -320 -321 644 0
421 -645 0
321 -645 0
-421 -321 645 0
520 -646 0
319 -646 0
320 -646 0
321 -646 0
322 -646 0
-520 -319 -320 -321 -322 646 0
420 -647 0
320 -647 0
321 -647 0
322 -647 0
-420 -320 -321 -322 647 0
421 -648 0
321 -648 0
322 -648 0
-421 -321 -322 648 0
422 -649 0
322 -649 0
-422 -322 649 0
-420 521 0
-640 521 0
420 640 -521 0
-421 522 0
-641 522 0
-642 522 0
421 641 642 -522 0
-422 523 0
-643 523 0
-644 523 0
-645 523 0
422 643 644 645 -523 0
-423 524 0
-646 524 0
-647 524 0
-648 524 0
-649 524 0
423 646 647 648 649 -524 0
524 -650 0
323 -650 0
-524 -323 650 0
524 -651 0
323 -651 0
324 -651 0
-524 -323 -324 651 0
424 -652 0
324 -652 0
-424 -324 652 0
524 -653 0
323 -653 0
324 -653 0
325 -653 0
-524 -323 -324 -325 653 0
424 -654 0
324 -654 0
325 -654 0
-424 -324 -325 654 0
425 -655 0
325 -655 0
-425 -325 655 0
524 -656 0
323 -656 0
324 -656 0
325 -656 0
326 -656 0
-524 -323 -324 -325 -326 656 0
424 -657 0
324 -657 0
325 -657 0
326 -657 0
-424 -324 -325 -326 657 0
425 -658 0
325 -658 0
326 -658 0
-425 -325 -326 658 0
426 -659 0
326 -659 0
-426 -326 659 0
-424 525 0
-650 525 0
424 650 -525 0
-425 526 0
-651 526 0
-652 526 0
425 651 652 -526 0
-426 527 0
-653 527 0
-654 527 0
-655 527 0
426 653 654 655 -527 0
-427 528 0
-656 528 0
-657 528 0
-658 528 0
-659 528 0
427 656 657 658 659 -528 0
528 -660 0
327 -660 0
-528 -327 660 0
528 -661 0
327 -661 0
328 -661 0
-528 -327 -328 661 0
428 -662 0
328 -662 0
-428 -328 662 0
528 -663 0
327 -663 0
328 -663 0
329 -663 0
-528 -327 -328 -329 663 0
428 -664 0
328 -664 0
329 -664 0
-428 -328 -329 664 0
429 -665 0
329 -665 0
-429 -329 665 0
528 -666 0
327 -666 0
328 -666 0
329 -666 0
330 -666 0
-528 -327 -328 -329 -330 666 0
428 -667 0
328 -667 0
329 -667 0
330 -667 0
-428 -328 -329 -330 667 0
429 -668 0
329 -668 0
330 -668 0
-429 -329 -330 668 0
430 -669 0
330 -669 0
-430 -330 669 0
-428 529 0
-660 529 0
428 660 -529 0
-429 530 0
-661 530 0
-662 530 0
429 661 662 -530 0
-430 531 0
-663 531 0
-664 531 0
-665 531 0
430 663 664 665 -531 0
-431 532 0
-666 532 0
-667 532 0
-668 532 0
-669 532 0
431 666 667 668 669 -532 0
532 -670 0
331 -670 0
-532 -331 670 0
532 -671 0
331 -671 0
332 -671 0
-532 -331 -332 671 0
432 -672 0
332 -672 0
-432 -332 672 0
532 -673 0
331 -673 0
332 -673 0
333 -673 0
-532 -331 -332 -333 673 0
432 -674 0
332 -674 0
333 -674 0
-432 -332 -333 674 0
433 -675 0
333 -675 0
-433 -333 675 0
532 -676 0
331 -676 0
332 -676 0
333 -676 0
334 -676 0
-532 -331 -332 -333 -334 676 0
432 -677 0
332 -677 0
333 -677 0
334 -677 0
-432 -332 -333 -334 677 0
433 -678 0
333 -678 0
334 -678 0
-433 -333 -334 678 0
434 -679 0
334 -679 0
-434 -334 679 0
-432 533 0
-670 533 0
432 670 -533 0
-433 534 0
-671 534 0
-672 534 0
433 671 672 -534 0
-434 535 0
-673 535 0
-674 535 0
-675 535 0
434 673 674 675 -535 0
-435 536 0
-676 536 0
-677 536 0
-678 536 0
-679 536 0
435 676 677 678 679 -536 0
536 -680 0
335 -680 0
-536 -335 680 0
536 -681 0
335 -681 0
336 -681 0
-536 -335 -336 681 0
436 -682 0
336 -682 0
-436 -336 682 0
536 -683 0
335 -683 0
336 -683 0
337 -683 0
-536 -335 -336 -337 683 0
436 -684 0
336 -684 0
337 -684 0
-436 -336 -337 684 0
437 -685 0
337 -685 0
-437 -337 685 0
536 -686 0
335 -686 0
336 -686 0
337 -686 0
338 -686 0
-536 -335 -336 -337 -338 686 0
436 -687 0
336 -687 0
337 -687 0
338 -687 0
-436 -336 -337 -338 687 0
437 -688 0
337 -688 0
338 -688 0
-437 -337 -338 688 0
438 -689 0
338 -689 0
-438 -338 689 0
-436 537 0
-680 537 0
436 680 -537 0
-437 538 0
-681 538 0
-682 538 0
437 681 682 -538 0
-438 539 0
-683 539 0
-684 539 0
-685 539 0
438 683 684 685 -539 0
-439 540 0
-686 540 0
-687 540 0
-688 540 0
-689 540 0
439 686 687 688 689 -540 0
540 -690 0
339 -690 0
-540 -339 690 0
540 -691 0
339 -691 0
340 -691 0
-540 -339 -340 691 0
440 -692 0
340 -692 0
-440 -340 692 0
540 -693 0
339 -693 0
340 -693 0
341 -693 0
-540 -339 -340 -341 693 0
440 -694 0
340 -694 0
341 -694 0
-440 -340 -341 694 0
441 -695 0
341 -695 0
-441 -341 695 0
540 -696 0
339 -696 0
340 -696 0
341 -696 0
342 -696 0
-540 -339 -340 -341 -342 696 0
440 -697 0
340 -697 0
341 -697 0
342 -697 0
-440 -340 -341 -342 697 0
441 -698 0
341 -698 0
342 -698 0
-441 -341 -342 698 0
442 -699 0
342 -699 0
-442 -342 699 0
-440 541 0
-690 541 0
440 690 -541 0
-441 542 0
-691 542 0
-692 542 0
441 691 692 -542 0
-442 543 0
-693 543 0
-694 543 0
-695 543 0
442 693 694 695 -543 0
-443 544 0
-696 544 0
-697 544 0
-698 544 0
-699 544 0
443 696 697 698 699 -544 0
544 -700 0
343 -700 0
-544 -343 700 0
544 -701 0
343 -701 0
344 -701 0
-544 -343 -344 701 0
444 -702 0
344 -702 0
-444 -344 702 0
544 -703 0
343 -703 0
344 -703 0
345 -703 0
-544 -343 -344 -345 703 0
444 -704 0
344 -704 0
345 -704 0
-444 -344 -345 704 0
445 -705 0
345 -705 0
-445 -345 705 0
544 -706 0
343 -706 0
344 -706 0
345 -706 0
346 -706 0
-544 -343 -344 -345 -346 706 0
444 -707 0
344 -707 0
345 -707 0
346 -707 0
-444 -344 -345 -346 707 0
445 -708 0
345 -708 0
346 -708 0
-445 -345 -346 708 0
446 -709 0
346 -709 0
-446 -346 709 0
-444 545 0
-700 545 0
444 700 -545 0
-445 546 0
-701 546 0
-702 546 0
445 701 702 -546 0
-446 547 0
-703 547 0
-704 547 0
-705 547 0
446 703 704 705 -547 0
-447 548 0
-706 548 0
-707 548 0
-708 548 0
-709 548 0
447 706 707 708 709 -548 0
548 -710 0
347 -710 0
-548 -347 710 0
548 -711 0
347 -711 0
348 -711 0
-548 -347 -348 711 0
448 -712 0
348 -712 0
-448 -348 712 0
548 -713 0
347 -713 0
348 -713 0
349 -713 0
-548 -347 -348 -349 713 0
448 -714 0
348 -714 0
349 -714 0
-448 -348 -349 714 0
449 -715 0
349 -715 0
-449 -349 715 0
548 -716 0
347 -716 0
348 -716 0
349 -716 0
350 -716 0
-548 -347 -348 -349 -350 716 0
448 -717 0
348 -717 0
349 -717 0
350 -717 0
-448 -348 -349 -350 717 0
449 -718 0
349 -718 0
350 -718 0
-449 -349 -350 718 0
450 -719 0
350 -719 0
-450 -350 719 0
-448 549 0
-710 549 0
448 710 -549 0
-449 550 0
-711 550 0
-712 550 0
449 711 712 -550 0
-450 551 0
-713 551 0
-714 551 0
-715 551 0
450 713 714 715 -551 0
-451 552 0
-716 552 0
-717 552 0
-718 552 0
-719 552 0
451 716 717 718 719 -552 0
552 -720 0
351 -720 0
-552 -351 720 0
552 -721 0
351 -721 0
352 -721 0
-552 -351 -352 721 0
452 -722 0
352 -722 0
-452 -352 722 0
552 -723 0
351 -723 0
352 -723 0
353 -723 0
-552 -351 -352 -353 723 0
452 -724 0
352 -724 0
353 -724 0
-452 -352 -353 724 0
453 -725 0
353 -725 0
-453 -353 725 0
552 -726 0
351 -726 0
352 -726 0
353 -726 0
354 -726 0
-552 -351 -352 -353 -354 726 0
452 -727 0
352 -727 0
353 -727 0
354 -727 0
-452 -352 -353 -354 727 0
453 -728 0
353 -728 0
354 -728 0
-453 -353 -354 728 0
454 -729 0
354 -729 0
-454 -354 729 0
-452 553 0
-720 553 0
452 720 -553 0
-453 554 0
-721 554 0
-722 554 0
453 721 722 -554 0
-454 555 0
-723 555 0
-724 555 0
-725 555 0
454 723 724 725 -555 0
-455 556 0
-726 556 0
-727 556 0
-728 556 0
-729 556 0
455 726 727 728 729 -556 0
556 -730 0
355 -730 0
-556 -355 730 0
556 -731 0
355 -731 0
356 -731 0
-556 -355 -356 731 0
456 -732 0
356 -732 0
-456 -356 732 0
556 -733 0
355 -733 0
356 -733 0
357 -733 0
-556 -355 -356 -357 733 0
456 -734 0
356 -734 0
357 -734 0
-456 -356 -357 734 0
457 -735 0
357 -735 0
-457 -357 735 0
556 -736 0
355 -736 0
356 -736 0
357 -736 0
358 -736 0
-556 -355 -356 -357 -358 736 0
456 -737 0
356 -737 0
357 -737 0
358 -737 0
-456 -356 -357 -358 737 0
457 -738 0
357 -738 0
358 -738 0
-457 -357 -358 738 0
458 -739 0
358 -739 0
-458 -358 739 0
-456 557 0
-730 557 0
456 730 -557 0
-457 558 0
-731 558 0
-732 558 0
457 731 732 -558 0
-458 559 0
-733 559 0
-734 559 0
-735 559 0
458 733 734 735 -559 0
-459 560 0
-736 560 0
-737 560 0
-738 560 0
-739 560 0
459 736 737 738 739 -560 0
560 -740 0
359 -740 0
-560 -359 740 0
560 -741 0
359 -741 0
360 -741 0
-560 -359 -360 741 0
460 -742 0
360 -742 0
-460 -360 742 0
560 -743 0
359 -743 0
360 -743 0
361 -743 0
-560 -359 -360 -361 743 0
460 -744 0
360 -744 0
361 -744 0
-460 -360 -361 744 0
461 -745 0
361 -745 0
-461 -361 745 0
560 -746 0
359 -746 0
360 -746 0
361 -746 0
362 -746 0
-560 -359 -360 -361 -362 746 0
460 -747 0
360 -747 0
361 -747 0
362 -747 0
-460 -360 -361 -362 747 0
461 -748 0
361 -748 0
362 -748 0
-461 -361 -362 748 0
462 -749 0
362 -749 0
-462 -362 749 0
-460 561 0
-740 561 0
460 740 -561 0
-461 562 0
-741 562 0
-742 562 0
461 741 742 -562 0
-462 563 0
-743 563 0
-744 563 0
-745 563 0
462 743 744 745 -563 0
-463 564 0
-746 564 0
-747 564 0
-748 564 0
-749 564 0
463 746 747 748 749 -564 0
564 -750 0
363 -750 0
-564 -363 750 0
564 -751 0
363 -751 0
364 -751 0
-564 -363 -364 751 0
464 -752 0
364 -752 0
-464 -364 752 0
564 -753 0
363 -753 0
364 -753 0
365 -753 0
-564 -363 -364 -365 753 0
464 -754 0
364 -754 0
365 -754 0
-464 -364 -365 754 0
465 -755 0
365 -755 0
-465 -365 755 0
564 -756 0
363 -756 0
364 -756 0
365 -756 0
366 -756 0
-564 -363 -364 -365 -366 756 0
464 -757 0
364 -757 0
365 -757 0
366 -757 0
-464 -364 -365 -366 757 0
465 -758 0
365 -758 0
366 -758 0
-465 -365 -366 758 0
466 -759 0
366 -759 0
-466 -366 759 0
-464 565 0
-750 565 0
464 750 -565 0
-465 566 0
-751 566 0
-752 566 0
465 751 752 -566 0
-466 567 0
-753 567 0
-754 567 0
-755 567 0
466 753 754 755 -567 0
-467 568 0
-756 568 0
-757 568 0
-758 568 0
-759 568 0
467 756 757 758 759 -568 0
568 -760 0
367 -760 0
-568 -367 760 0
568 -761 0
367 -761 0
368 -761 0
-568 -367 -368 761 0
468 -762 0
368 -762 0
-468 -368 762 0
568 -763 0
367 -763 0
368 -763 0
369 -763 0
-568 -367 -368 -369 763 0
468 -764 0
368 -764 0
369 -764 0
-468 -368 -369 764 0
469 -765 0
369 -765 0
-469 -369 765 0
568 -766 0
367 -766 0
368 -766 0
369 -766 0
370 -766 0
-568 -367 -368 -369 -370 766 0
468 -767 0
368 -767 0
369 -767 0
370 -767 0
-468 -368 -369 -370 767 0
469 -768 0
369 -768 0
370 -768 0
-469 -369 -370 768 0
470 -769 0
370 -769 0
-470 -370 769 0
-468 569 0
-760 569 0
468 760 -569 0
-469 570 0
-761 570 0
-762 570 0
469 761 762 -570 0
-470 571 0
-763 571 0
-764 571 0
-765 571 0
470 763 764 765 -571 0
-471 572 0
-766 572 0
-767 572 0
-768 572 0
-769 572 0
471 766 767 768 769 -572 0
572 -770 0
371 -770 0
-572 -371 770 0
572 -771 0
371 -771 0
372 -771 0
-572 -371 -372 771 0
472 -772 0
372 -772 0
-472 -372 772 0
572 -773 0
371 -773 0
372 -773 0
373 -773 0
-572 -371 -372 -373 773 0
472 -774 0
372 -774 0
373 -774 0
-472 -372 -373 774 0
473 -775 0
373 -775 0
-473 -373 775 0
572 -776 0
371 -776 0
372 -776 0
373 -776 0
374 -776 0
-572 -371 -372 -373 -374 776 0
472 -777 0
372 -777 0
373 -777 0
374 -777 0
-472 -372 -373 -374 777 0
473 -778 0
373 -778 0
374 -778 0
-473 -373 -374 778 0
474 -779 0
374 -779 0
-474 -374 779 0
-472 573 0
-770 573 0
472 770 -573 0
-473 574 0
-771 574 0
-772 574 0
473 771 772 -574 0
-474 575 0
-773 575 0
-774 575 0
-775 575 0
474 773 774 775 -575 0
-475 576 0
-776 576 0
-777 576 0
-778 576 0
-779 576 0
475 776 777 778 779 -576 0
576 -780 0
375 -780 0
-576 -375 780 0
576 -781 0
375 -781 0
376 -781 0
-576 -375 -376 781 0
476 -782 0
376 -782 0
-476 -376 782 0
576 -783 0
375 -783 0
376 -783 0
377 -783 0
-576 -375 -376 -377 783 0
476 -784 0
376 -784 0
377 -784 0
-476 -376 -377 784 0
477 -785 0
377 -785 0
-477 -377 785 0
576 -786 0
375 -786 0
376 -786 0
377 -786 0
378 -786 0
-576 -375 -376 -377 -378 786 0
476 -787 0
376 -787 0
377 -787 0
378 -787 0
-476 -376 -377 -378 787 0
477 -788 0
377 -788 0
378 -788 0
-477 -377 -378 788 0
478 -789 0
378 -789 0
-478 -378 789 0
-476 577 0
-780 577 0
476 780 -577 0
-477 578 0
-781 578 0
-782 578 0
477 781 782 -578 0
-478 579 0
-783 579 0
-784 579 0
-785 579 0
478 783 784 785 -579 0
-479 580 0
-786 580 0
-787 580 0
-788 580 0
-789 580 0
479 786 787 788 789 -580 0
580 -790 0
379 -790 0
-580 -379 790 0
580 -791 0
379 -791 0
380 -791 0
-580 -379 -380 791 0
480 -792 0
380 -792 0
-480 -380 792 0
580 -793 0
379 -793 0
380 -793 0
381 -793 0
-580 -379 -380 -381 793 0
480 -794 0
380 -794 0
381 -794 0
-480 -380 -381 794 0
481 -795 0
381 -795 0
-481 -381 795 0
580 -796 0
379 -796 0
380 -796 0
381 -796 0
382 -796 0
-580 -379 -380 -381 -382 796 0
480 -797 0
380 -797 0
381 -797 0
382 -797 0
-480 -380 -381 -382 797 0
481 -798 0
381 -798 0
382 -798 0
-481 -381 -382 798 0
482 -799 0
382 -799 0
-482 -382 799 0
-480 581 0
-790 581 0
480 790 -581 0
-481 582 0
-791 582 0
-792 582 0
481 791 792 -582 0
-482 583 0
-793 583 0
-794 583 0
-795 583 0
482 793 794 795 -583 0
-483 584 0
-796 584 0
-797 584 0
-798 584 0
-799 584 0
483 796 797 798 799 -584 0
584 -800 0
383 -800 0
-584 -383 800 0
584 -801 0
383 -801 0
384 -801 0
-584 -383 -384 801 0
484 -802 0
384 -802 0
-484 -384 802 0
584 -803 0
383 -803 0
384 -803 0
385 -803 0
-584 -383 -384 -385 803 0
484 -804 0
384 -804 0
385 -804 0
-484 -384 -385 804 0
485 -805 0
385 -805 0
-485 -385 805 0
584 -806 0
383 -806 0
384 -806 0
385 -806 0
386 -806 0
-584 -383 -384 -385 -386 806 0
484 -807 0
384 -807 0
385 -807 0
386 -807 0
-484 -384 -385 -386 807 0
485 -808 0
385 -808 0
386 -808 0
-485 -385 -386 808 0
486 -809 0
386 -809 0
-486 -386 809 0
-484 585 0
-800 585 0
484 800 -585 0
-485 586 0
-801 586 0
-802 586 0
485 801 802 -586 0
-486 587 0
-803 587 0
-804 587 0
-805 587 0
486 803 804 805 -587 0
-487 588 0
-806 588 0
-807 588 0
-808 588 0
-809 588 0
487 806 807 808 809 -588 0
588 -810 0
387 -810 0
-588 -387 810 0
588 -811 0
387 -811 0
388 -811 0
-588 -387 -388 811 0
488 -812 0
388 -812 0
-488 -388 812 0
588 -813 0
387 -813 0
388 -813 0
389 -813 0
-588 -387 -388 -389 813 0
488 -814 0
388 -814 0
389 -814 0
-488 -388 -389 814 0
489 -815 0
389 -815 0
-489 -389 815 0
588 -816 0
387 -816 0
388 -816 0
389 -816 0
390 -816 0
-588 -387 -388 -389 -390 816 0
488 -817 0
388 -817 0
389 -817 0
390 -817 0
-488 -388 -389 -390 817 0
489 -818 0
389 -818 0
390 -818 0
-489 -389 -390 818 0
490 -819 0
390 -819 0
-490 -390 819 0
-488 589 0
-810 589 0
488 810 -589 0
-489 590 0
-811 590 0
-812 590 0
489 811 812 -590 0
-490 591 0
-813 591 0
-814 591 0
-815 591 0
490 813 814 815 -591 0
-491 592 0
-816 592 0
-817 592 0
-818 592 0
-819 592 0
491 816 817 818 819 -592 0
592 -820 0
391 -820 0
-592 -391 820 0
592 -821 0
391 -821 0
392 -821 0
-592 -391 -392 821 0
492 -822 0
392 -822 0
-492 -392 822 0
592 -823 0
391 -823 0
392 -823 0
393 -823 0
-592 -391 -392 -393 823 0
492 -824 0
392 -824 0
393 -824 0
-492 -392 -393 824 0
493 -825 0
393 -825 0
-493 -393 825 0
592 -826 0
391 -826 0
392 -826 0
393 -826 0
394 -826 0
-592 -391 -392 -393 -394 826 0
492 -827 0
392 -827 0
393 -827 0
394 -827 0
-492 -392 -393 -394 827 0
493 -828 0
393 -828 0
394 -828 0
-493 -393 -394 828 0
494 -829 0
394 -829 0
-494 -394 829 0
-492 593 0
-820 593 0
492 820 -593 0
-493 594 0
-821 594 0
-822 594 0
493 821 822 -594 0
-494 595 0
-823 595 0
-824 595 0
-825 595 0
494 823 824 825 -595 0
-495 596 0
-826 596 0
-827 596 0
-828 596 0
-829 596 0
495 826 827 828 829 -596 0
596 -830 0
395 -830 0
-596 -395 830 0
596 -831 0
395 -831 0
396 -831 0
-596 -395 -396 831 0
496 -832 0
396 -832 0
-496 -396 832 0
596 -833 0
395 -833 0
396 -833 0
397 -833 0
-596 -395 -396 -397 833 0
496 -834 0
396 -834 0
397 -834 0
-496 -396 -397 834 0
497 -835 0
397 -835 0
-497 -397 835 0
596 -836 0
395 -836 0
396 -836 0
397 -836 0
398 -836 0
-596 -395 -396 -397 -398 836 0
496 -837 0
396 -837 0
397 -837 0
398 -837 0
-496 -396 -397 -398 837 0
497 -838 0
397 -838 0
398 -838 0
-497 -397 -398 838 0
498 -839 0
398 -839 0
-498 -398 839 0
-496 597 0
-830 597 0
496 830 -597 0
-497 598 0
-831 598 0
-832 598 0
497 831 832 -598 0
-498 599 0
-833 599 0
-834 599 0
-835 599 0
498 833 834 835 -599 0
-499 600 0
-836 600 0
-837 600 0
-838 600 0
-839 600 0
499 836 837 838 839 -600 0
600 -840 0
399 -840 0
-600 -399 840 0
600 -841 0
399 -841 0
400 -841 0
-600 -399 -400 841 0
500 -842 0
400 -842 0
-500 -400 842 0
600 -843 0
399 -843 0
400 -843 0
401 -843 0
-600 -399 -400 -401 843 0
500 -844 0
400 -844 0
401 -844 0
-500 -400 -401 844 0
501 -845 0
401 -845 0
-501 -401 845 0
600 -846 0
399 -846 0
400 -846 0
401 -846 0
402 -846 0
-600 -399 -400 -401 -402 846 0
500 -847 0
400 -847 0
401 -847 0
402 -847 0
-500 -400 -401 -402 847 0
501 -848 0
401 -848 0
402 -848 0
-501 -401 -402 848 0
502 -849 0
402 -849 0
-502 -402 849 0
-500 601 0
-840 601 0
500 840 -601 0
-501 602 0
-841 602 0
-842 602 0
501 841 842 -602 0
-502 603 0
-843 603 0
-844 603 0
-845 603 0
502 843 844 845 -603 0
-503 604 0
-846 604 0
-847 604 0
-848 604 0
-849 604 0
503 846 847 848 849 -604 0
604 -850 0
403 -850 0
-604 -403 850 0
604 -851 0
403 -851 0
404 -851 0
-604 -403 -404 851 0
504 -852 0
404 -852 0
-504 -404 852 0
604 -853 0
403 -853 0
404 -853 0
405 -853 0
-604 -403 -404 -405 853 0
504 -854 0
404 -854 0
405 -854 0
-504 -404 -405 854 0
505 -855 0
405 -855 0
-505 -405 855 0
604 -856 0
403 -856 0
404 -856 0
405 -856 0
406 -856 0
-604 -403 -404 -405 -406 856 0
504 -857 0
404 -857 0
405 -857 0
406 -857 0
-504 -404 -405 -406 857 0
505 -858 0
405 -858 0
406 -858 0
-505 -405 -406 858 0
506 -859 0
406 -859 0
-506 -406 859 0
-504 605 0
-850 605 0
504 850 -605 0
-505 606 0
-851 606 0
-852 606 0
505 851 852 -606 0
-506 607 0
-853 607 0
-854 607 0
-855 607 0
506 853 854 855 -607 0
-507 608 0
-856 608 0
-857 608 0
-858 608 0
-859 608 0
507 856 857 858 859 -608 0
608 -860 0
407 -860 0
-608 -407 860 0
-508 609 0
-860 609 0
508 860 -609 0
307 305 -203 0
-307 305 203 0
307 -305 203 0
-307 -305 -203 0
308 509 -204 0
-308 509 204 0
308 -509 204 0
-308 -509 -204 0
309 510 -205 0
-309 510 205 0
309 -510 205 0
-309 -510 -205 0
310 511 -206 0
-310 511 206 0
310 -511 206 0
-310 -511 -206 0
311 512 -207 0
-311 512 207 0
311 -512 207 0
-311 -512 -207 0
312 513 -208 0
-312 513 208 0
312 -513 208 0
-312 -513 -208 0
313 514 -209 0
-313 514 209 0
313 -514 209 0
-313 -514 -209 0
314 515 -210 0
-314 515 210 0
314 -515 210 0
-314 -515 -210 0
315 516 -211 0
-315 516 211 0
315 -516 211 0
-315 -516 -211 0
316 517 -212 0
-316 517 212 0
316 -517 212 0
-316 -517 -212 0
317 518 -213 0
-317 518 213 0
317 -518 213 0
-317 -518 -213 0
318 519 -214 0
-318 519 214 0
318 -519 214 0
-318 -519 -214 0
319 520 -215 0
-319 520 215 0
319 -520 215 0
-319 -520 -215 0
320 521 -216 0
-320 521 216 0
320 -521 216 0
-320 -521 -216 0
321 522 -217 0
-321 522 217 0
321 -522 217 0
-321 -522 -217 0
322 523 -218 0
-322 523 218 0
322 -523 218 0
-322 -523 -218 0
323 524 -219 0
-323 524 219 0
323 -524 219 0
-323 -524 -219 0
324 525 -220 0
-324 525 220 0
324 -525 220 0
-324 -525 -220 0
325 526 -221 0
-325 526 221 0
325 -526 221 0
-325 -526 -221 0
326 527 -222 0
-326 527 222 0
326 -527 222 0
-326 -527 -222 0
327 528 -223 0
-327 528 223 0
327 -528 223 0
-327 -528 -223 0
328 529 -224 0
-328 529 224 0
328 -529 224 0
-328 -529 -224 0
329 530 -225 0
-329 530 225 0
329 -530 225 0
-329 -530 -225 0
330 531 -226 0
-330 531 226 0
330 -531 226 0
-330 -531 -226 0
331 532 -227 0
-331 532 227 0
331 -532 227 0
-331 -532 -227 0
332 533 -228 0
-332 533 228 0
332 -533 228 0
-332 -533 -228 0
333 534 -229 0
-333 534 229 0
333 -534 229 0
-333 -534 -229 0
334 535 -230 0
-334 535 230 0
334 -535 230 0
-334 -535 -230 0
335 536 -231 0
-335 536 231 0
335 -536 231 0
-335 -536 -231 0
336 537 -232 0
-336 537 232 0
336 -537 232 0
-336 -537 -232 0
337 538 -233 0
-337 538 233 0
337 -538 233 0
-337 -538 -233 0
338 539 -234 0
-338 539 234 0
338 -539 234 0
-338 -539 -234 0
339 540 -235 0
-339 540 235 0
339 -540 235 0
-339 -540 -235 0
340 541 -236 0
-340 541 236 0
340 -541 236 0
-340 -541 -236 0
341 542 -237 0
-341 542 237 0
341 -542 237 0
-341 -542 -237 0
342 543 -238 0
-342 543 238 0
342 -543 238 0
-342 -543 -238 0
343 544 -239 0
-343 544 239 0
343 -544 239 0
-343 -544 -239 0
344 545 -240 0
-344 545 240 0
344 -545 240 0
-344 -545 -240 0
345 546 -241 0
-345 546 241 0
345 -546 241 0
-345 -546 -241 0
346 547 -242 0
-346 547 242 0
346 -547 242 0
-346 -547 -242 0
347 548 -243 0
-347 548 243 0
347 -548 243 0
-347 -548 -243 0
348 549 -244 0
-348 549 244 0
348 -549 244 0
-348 -549 -244 0
349 550 -245 0
-349 550 245 0
349 -550 245 0
-349 -550 -245 0
350 551 -246 0
-350 551 246 0
350 -551 246 0
-350 -551 -246 0
351 552 -247 0
-351 552 247 0
351 -552 247 0
-351 -552 -247 0
352 553 -248 0
-352 553 248 0
352 -553 248 0
-352 -553 -248 0
353 554 -249 0
-353 554 249 0
353 -554 249 0
-353 -554 -249 0
354 555 -250 0
-354 555 250 0
354 -555 250 0
-354 -555 -250 0
355 556 -251 0
-355 556 251 0
355 -556 251 0
-355 -556 -251 0
356 557 -252 0
-356 557 252 0
356 -557 252 0
-356 -557 -252 0
357 558 -253 0
-357 558 253 0
357 -558 253 0
-357 -558 -253 0
358 559 -254 0
-358 559 254 0
358 -559 254 0
-358 -559 -254 0
359 560 -255 0
-359 560 255 0
359 -560 255 0
-359 -560 -255 0
360 561 -256 0
-360 561 256 0
360 -561 256 0
-360 -561 -256 0
361 562 -257 0
-361 562 257 0
361 -562 257 0
-361 -562 -257 0
362 563 -258 0
-362 563 258 0
362 -563 258 0
-362 -563 -258 0
363 564 -259 0
-363 564 259 0
363 -564 259 0
-363 -564 -259 0
364 565 -260 0
-364 565 260 0
364 -565 260 0
-364 -565 -260 0
365 566 -261 0
-365 566 261 0
365 -566 261 0
-365 -566 -261 0
366 567 -262 0
-366 567 262 0
366 -567 262 0
-366 -567 -262 0
367 568 -263 0
-367 568 263 0
367 -568 263 0
-367 -568 -263 0
368 569 -264 0
-368 569 264 0
368 -569 264 0
-368 -569 -264 0
369 570 -265 0
-369 570 265 0
369 -570 265 0
-369 -570 -265 0
370 571 -266 0
-370 571 266 0
370 -571 266 0
-370 -571 -266 0
371 572 -267 0
-371 572 267 0
371 -572 267 0
-371 -572 -267 0
372 573 -268 0
-372 573 268 0
372 -573 268 0
-372 -573 -268 0
373 574 -269 0
-373 574 269 0
373 -574 269 0
-373 -574 -269 0
374 575 -270 0
-374 575 270 0
374 -575 270 0
-374 -575 -270 0
375 576 -271 0
-375 576 271 0
375 -576 271 0
-375 -576 -271 0
376 577 -272 0
-376 577 272 0
376 -577 272 0
-376 -577 -272 0
377 578 -273 0
-377 578 273 0
377 -578 273 0
-377 -578 -273 0
378 579 -274 0
-378 579 274 0
378 -579 274 0
-378 -579 -274 0
379 580 -275 0
-379 580 275 0
379 -580 275 0
-379 -580 -275 0
380 581 -276 0
-380 581 276 0
380 -581 276 0
-380 -581 -276 0
381 582 -277 0
-381 582 277 0
381 -582 277 0
-381 -582 -277 0
382 583 -278 0
-382 583 278 0
382 -583 278 0
-382 -583 -278 0
383 584 -279 0
-383 584 279 0
383 -584 279 0
-383 -584 -279 0
384 585 -280 0
-384 585 280 0
384 -585 280 0
-384 -585 -280 0
385 586 -281 0
-385 586 281 0
385 -586 281 0
-385 -586 -281 0
386 587 -282 0
-386 587 282 0
386 -587 282 0
-386 -587 -282 0
387 588 -283 0
-387 588 283 0
387 -588 283 0
-387 -588 -283 0
388 589 -284 0
-388 589 284 0
388 -589 284 0
-388 -589 -284 0
389 590 -285 0
-389 590 285 0
389 -590 285 0
-389 -590 -285 0
390 591 -286 0
-390 591 286 0
390 -591 286 0
-390 -591 -286 0
391 592 -287 0
-391 592 287 0
391 -592 287 0
-391 -592 -287 0
392 593 -288 0
-392 593 288 0
392 -593 288 0
-392 -593 -288 0
393 594 -289 0
-393 594 289 0
393 -594 289 0
-393 -594 -289 0
394 595 -290 0
-394 595 290 0
394 -595 290 0
-394 -595 -290 0
395 596 -291 0
-395 596 291 0
395 -596 291 0
-395 -596 -291 0
396 597 -292 0
-396 597 292 0
396 -597 292 0
-396 -597 -292 0
397 598 -293 0
-397 598 293 0
397 -598 293 0
-397 -598 -293 0
398 599 -294 0
-398 599 294 0
398 -599 294 0
-398 -599 -294 0
399 600 -295 0
-399 600 295 0
399 -600 295 0
-399 -600 -295 0
400 601 -296 0
-400 601 296 0
400 -601 296 0
-400 -601 -296 0
401 602 -297 0
-401 602 297 0
401 -602 297 0
-401 -602 -297 0
402 603 -298 0
-402 603 298 0
402 -603 298 0
-402 -603 -298 0
403 604 -299 0
-403 604 299 0
403 -604 299 0
-403 -604 -299 0
404 605 -300 0
-404 605 300 0
404 -605 300 0
-404 -605 -300 0
405 606 -301 0
-405 606 301 0
405 -606 301 0
-405 -606 -301 0
406 607 -302 0
-406 607 302 0
406 -607 302 0
-406 -607 -302 0
407 608 -303 0
-407 608 303 0
407 -608 303 0
-407 -608 -303 0
609 -304 0
-609 304 0
